p edge 28 168
e 1 2
e 1 3
e 1 4
e 1 5
e 1 7
e 1 8
e 1 11
e 1 12
e 1 16
e 1 17
e 1 22
e 1 23
e 2 3
e 2 4
e 2 6
e 2 7
e 2 9
e 2 11
e 2 13
e 2 16
e 2 18
e 2 22
e 2 24
e 3 5
e 3 6
e 3 8
e 3 9
e 3 12
e 3 13
e 3 17
e 3 18
e 3 23
e 3 24
e 4 5
e 4 6
e 4 7
e 4 10
e 4 11
e 4 14
e 4 16
e 4 19
e 4 22
e 4 25
e 5 6
e 5 8
e 5 10
e 5 12
e 5 14
e 5 17
e 5 19
e 5 23
e 5 25
e 6 9
e 6 10
e 6 13
e 6 14
e 6 18
e 6 19
e 6 24
e 6 25
e 7 8
e 7 9
e 7 10
e 7 11
e 7 15
e 7 16
e 7 20
e 7 22
e 7 26
e 8 9
e 8 10
e 8 12
e 8 15
e 8 17
e 8 20
e 8 23
e 8 26
e 9 10
e 9 13
e 9 15
e 9 18
e 9 20
e 9 24
e 9 26
e 10 14
e 10 15
e 10 19
e 10 20
e 10 25
e 10 26
e 11 12
e 11 13
e 11 14
e 11 15
e 11 16
e 11 21
e 11 22
e 11 27
e 12 13
e 12 14
e 12 15
e 12 17
e 12 21
e 12 23
e 12 27
e 13 14
e 13 15
e 13 18
e 13 21
e 13 24
e 13 27
e 14 15
e 14 19
e 14 21
e 14 25
e 14 27
e 15 20
e 15 21
e 15 26
e 15 27
e 16 17
e 16 18
e 16 19
e 16 20
e 16 21
e 16 22
e 16 28
e 17 18
e 17 19
e 17 20
e 17 21
e 17 23
e 17 28
e 18 19
e 18 20
e 18 21
e 18 24
e 18 28
e 19 20
e 19 21
e 19 25
e 19 28
e 20 21
e 20 26
e 20 28
e 21 27
e 21 28
e 22 23
e 22 24
e 22 25
e 22 26
e 22 27
e 22 28
e 23 24
e 23 25
e 23 26
e 23 27
e 23 28
e 24 25
e 24 26
e 24 27
e 24 28
e 25 26
e 25 27
e 25 28
e 26 27
e 26 28
e 27 28

